30
[[-1, 0, 0, 0, 0, 0, 0, 0, 26491, 35108, 0, 0, 10149, 0, 0, 0, 14049, 38184, 0, 32238, 0, 0, 0, 0, 0, 0, 40599, 0, 0, 0],[0, -1, 0, 0, 0, 0, 44715, 5985, 0, 42162, 0, 39150, 0, 0, 0, 16147, 26981, 27600, 0, 0, 0, 0, 0, 39209, 0, 0, 0, 0, 28260, 0],[0, 0, -1, 36599, 33978, 33498, 13678, 0, 0, 0, 32711, 0, 0, 0, 0, 0, 40789, 0, 20035, 39392, 0, 42670, 0, 0, 0, 0, 0, 0, 0, 0],[0, 0, 36599, -1, 0, 0, 1616, 0, 0, 0, 34613, 0, 0, 0, 43173, 23357, 0, 0, 0, 45731, 0, 0, 0, 0, 0, 24012, 42201, 0, 0, 0],[0, 0, 33978, 0, -1, 25712, 0, 0, 0, 0, 19694, 35650, 0, 0, 0, 33054, 0, 0, 0, 13923, 0, 0, 0, 33921, 0, 0, 0, 0, 22451, 0],[0, 0, 33498, 0, 25712, -1, 0, 0, 0, 42688, 27972, 0, 35424, 0, 0, 0, 0, 0, 0, 0, 0, 8745, 33456, 0, 6569, 0, 0, 0, 0, 0],[0, 44715, 13678, 1616, 0, 0, -1, 0, 0, 0, 0, 0, 0, 0, 0, 23163, 0, 0, 0, 0, 42679, 0, 0, 19864, 0, 0, 0, 0, 0, 33285],[0, 5985, 0, 0, 0, 0, 0, -1, 0, 0, 0, 0, 0, 0, 29232, 0, 0, 41693, 0, 0, 0, 19260, 0, 0, 0, 45588, 41139, 0, 0, 0],[26491, 0, 0, 0, 0, 0, 0, 0, -1, 0, 0, 44569, 0, 0, 0, 0, 45503, 24546, 15095, 36580, 46239, 0, 0, 16079, 0, 0, 0, 41744, 0, 36959],[35108, 42162, 0, 0, 0, 42688, 0, 0, 0, -1, 0, 25042, 0, 0, 0, 0, 0, 0, 0, 0, 0, 0, 0, 0, 44240, 0, 0, 0, 0, 0],[0, 0, 32711, 34613, 19694, 27972, 0, 0, 0, 0, -1, 0, 0, 0, 0, 0, 0, 0, 31323, 32089, 0, 0, 39065, 0, 0, 9384, 0, 31556, 0, 0],[0, 39150, 0, 0, 35650, 0, 0, 0, 44569, 25042, 0, -1, 0, 0, 0, 0, 0, 27053, 28867, 0, 0, 0, 39251, 0, 0, 0, 0, 0, 0, 0],[10149, 0, 0, 0, 0, 35424, 0, 0, 0, 0, 0, 0, -1, 0, 0, 0, 0, 0, 46256, 0, 0, 0, 0, 40205, 0, 0, 0, 0, 41624, 38859],[0, 0, 0, 0, 0, 0, 0, 0, 0, 0, 0, 0, 0, -1, 0, 0, 0, 0, 3641, 0, 0, 0, 0, 0, 0, 0, 0, 5159, 35396, 0],[0, 0, 0, 43173, 0, 0, 0, 29232, 0, 0, 0, 0, 0, 0, -1, 0, 0, 0, 0, 21721, 35465, 0, 0, 0, 0, 0, 0, 40574, 0, 43626],[0, 16147, 0, 23357, 33054, 0, 23163, 0, 0, 0, 0, 0, 0, 0, 0, -1, 0, 0, 9116, 0, 34323, 0, 0, 8975, 0, 0, 0, 0, 0, 0],[14049, 26981, 40789, 0, 0, 0, 0, 0, 45503, 0, 0, 0, 0, 0, 0, 0, -1, 0, 13259, 40408, 0, 40880, 0, 0, 0, 0, 0, 0, 0, 0],[38184, 27600, 0, 0, 0, 0, 0, 41693, 24546, 0, 0, 27053, 0, 0, 0, 0, 0, -1, 20662, 0, 19599, 17683, 0, 0, 0, 0, 0, 45677, 0, 0],[0, 0, 20035, 0, 0, 0, 0, 0, 15095, 0, 31323, 28867, 46256, 3641, 0, 9116, 13259, 20662, -1, 0, 0, 0, 31945, 0, 0, 0, 0, 0, 0, 0],[32238, 0, 39392, 45731, 13923, 0, 0, 0, 36580, 0, 32089, 0, 0, 0, 21721, 0, 40408, 0, 0, -1, 0, 26354, 0, 0, 0, 0, 0, 0, 0, 0],[0, 0, 0, 0, 0, 0, 42679, 0, 46239, 0, 0, 0, 0, 0, 35465, 34323, 0, 19599, 0, 0, -1, 18392, 22119, 0, 0, 0, 14706, 0, 0, 0],[0, 0, 42670, 0, 0, 8745, 0, 19260, 0, 0, 0, 0, 0, 0, 0, 0, 40880, 17683, 0, 26354, 18392, -1, 0, 0, 0, 0, 0, 0, 0, 0],[0, 0, 0, 0, 0, 33456, 0, 0, 0, 0, 39065, 39251, 0, 0, 0, 0, 0, 0, 31945, 0, 22119, 0, -1, 0, 0, 0, 0, 0, 0, 0],[0, 39209, 0, 0, 33921, 0, 19864, 0, 16079, 0, 0, 0, 40205, 0, 0, 8975, 0, 0, 0, 0, 0, 0, 0, -1, 0, 0, 0, 0, 0, 0],[0, 0, 0, 0, 0, 6569, 0, 0, 0, 44240, 0, 0, 0, 0, 0, 0, 0, 0, 0, 0, 0, 0, 0, 0, -1, 0, 0, 0, 0, 0],[0, 0, 0, 24012, 0, 0, 0, 45588, 0, 0, 9384, 0, 0, 0, 0, 0, 0, 0, 0, 0, 0, 0, 0, 0, 0, -1, 36569, 0, 43243, 0],[40599, 0, 0, 42201, 0, 0, 0, 41139, 0, 0, 0, 0, 0, 0, 0, 0, 0, 0, 0, 0, 14706, 0, 0, 0, 0, 36569, -1, 0, 44452, 38561],[0, 0, 0, 0, 0, 0, 0, 0, 41744, 0, 31556, 0, 0, 5159, 40574, 0, 0, 45677, 0, 0, 0, 0, 0, 0, 0, 0, 0, -1, 8201, 0],[0, 28260, 0, 0, 22451, 0, 0, 0, 0, 0, 0, 0, 41624, 35396, 0, 0, 0, 0, 0, 0, 0, 0, 0, 0, 0, 43243, 44452, 8201, -1, 0],[0, 0, 0, 0, 0, 0, 33285, 0, 36959, 0, 0, 0, 38859, 0, 43626, 0, 0, 0, 0, 0, 0, 0, 0, 0, 0, 0, 38561, 0, 0, -1]]